data;
param nombreJob := 7;
param nombreRessource := 3;
param duree := 1 2 2 3 3 8 4 9 5 4 6 9 7 5;
param capaciteRessource := 1 4 2 11 3 16;
param besoinRessource : 1 2 3 :=
                    1   2 2 4
                    2   3 8 3
                    3   1 4 3
                    4   1 8 10
                    5   2 7 1
                    6   3 5 10
                    7   1 2 10;
end;

